s td 31 11 40
b 1 22 35
b 2 2 3 13
b 3 1 6 16
b 4 3 7 9
b 5 3 27 29
b 6 10 20 33
b 7 1 3 12 15 20 24 27 32 34 35 36
b 8 1 4 12 15 20 24 27 32 34 35 36
b 9 1 4 12 15 17 20 27 32 34 35 36
b 10 1 4 12 15 17 20 34 35 39
b 11 1 12 15 17 20 26 34 39
b 12 1 5 12 17 20 26 34
b 13 1 5 14 17 20
b 14 5 10 14 20
b 15 15 19 20 26 34
b 16 15 18 19 34
b 17 11 12 17 20 32 35 36
b 18 4 20 24 31 36
b 19 4 24 25 31
b 20 1 3 12 13 15 20 24 27 35 36
b 21 1 13 15 16 20 24 27 35 36
b 22 15 16 24 27 28 35 36
b 23 24 28 35 36 37
b 24 8 28 36 37
b 25 16 28 35 36 38
b 26 1 3 12 15 23 24 27 32 34 35 36
b 27 1 3 9 12 23 24 32 34 35 36
b 28 9 21 23 36
b 29 1 9 23 24 34 40
b 30 23 27 30 34
b 31 35 36
1 31
2 20
3 21
4 27
5 7
6 14
7 31
7 8
7 20
7 26
8 9
8 18
9 10
9 17
10 11
11 12
11 15
12 13
13 14
15 16
18 19
20 21
21 22
22 23
22 25
23 24
26 27
26 30
27 28
27 29
